p cnf 10 43
-8 10 -9 0
1 -7 -1 0
-5 3 -9 0
-4 6 -10 0
2 5 -10 0
10 4 -2 0
-4 -2 6 0
-4 6 7 0
9 6 -1 0
10 -2 -9 0
1 2 -3 0
3 5 -1 0
-8 2 4 0
1 -4 7 0
9 2 4 0
9 -4 4 0
-7 -6 3 0
-4 5 6 0
9 10 -6 0
1 3 -9 0
2 -6 7 0
8 -8 -1 0
-6 2 -1 0
-6 4 -3 0
-7 5 -3 0
3 9 -5 0
8 2 5 0
10 5 7 0
-6 -5 -9 0
8 2 5 0
-8 1 -1 0
-7 -6 -3 0
1 10 -10 0
8 -10 -9 0
8 2 -3 0
8 2 -1 0
8 2 -9 0
9 4 -10 0
-7 -5 -4 0
-6 -5 6 0
4 -1 -9 0
-1 -2 7 0
1 -6 -7 0
